
Gurobi 10.0.3 (linux64, gurobi_cl) logging started Thu Nov  9 11:47:14 2023

Set parameter Username
Set parameter TimeLimit to value 3600
Set parameter LogFile to value "RCPSP_1017.log"
Set parameter Threads to value 32
Academic license - for non-commercial use only - expires 2024-10-30
Using license file /home/jrivera6/gurobi-licenses/v1003/compute-0-34/gurobi.lic

Gurobi Optimizer version 10.0.3 build v10.0.3rc0 (linux64)
Copyright (c) 2023, Gurobi Optimization, LLC

Read MPS format model from file RCPSP_1017.mps
Reading time = 0.34 seconds
RCPSP_1017: 42919 rows, 17020 columns, 142834 nonzeros

CPU model: Intel(R) Xeon(R) Gold 6130 CPU @ 2.10GHz, instruction set [SSE2|AVX|AVX2|AVX512]
Thread count: 32 physical cores, 32 logical processors, using up to 32 threads

Optimize a model with 42919 rows, 17020 columns and 142834 nonzeros
Model fingerprint: 0xfe9025e8
Variable types: 92 continuous, 16928 integer (16928 binary)
Coefficient statistics:
  Matrix range     [1e+00, 5e+02]
  Objective range  [1e+00, 1e+00]
  Bounds range     [1e+00, 1e+00]
  RHS range        [1e+00, 5e+02]
Presolve removed 7496 rows and 1739 columns
Presolve time: 3.24s
Presolved: 35423 rows, 15281 columns, 122899 nonzeros
Variable types: 91 continuous, 15190 integer (15190 binary)

Deterministic concurrent LP optimizer: primal and dual simplex (primal and dual model)
Showing first log only...

Root relaxation presolved: 35423 rows, 15281 columns, 122899 nonzeros


Root simplex log...

Iteration    Objective       Primal Inf.    Dual Inf.      Time
    2377    7.4000000e+01   1.258358e+02   5.507322e+07      5s
    2451    7.1000000e+01   0.000000e+00   0.000000e+00      6s
Concurrent spin time: 0.70s

Solved with dual simplex (dual model)

Root relaxation: objective 7.100000e+01, 16823 iterations, 2.66 seconds (0.12 work units)
Total elapsed time = 10.30s

    Nodes    |    Current Node    |     Objective Bounds      |     Work
 Expl Unexpl |  Obj  Depth IntInf | Incumbent    BestBd   Gap | It/Node Time

     0     0   71.00000    0   18          -   71.00000      -     -   12s
     0     0   71.00000    0  393          -   71.00000      -     -   31s
     0     0   71.00000    0  390          -   71.00000      -     -   31s
     0     0   71.00000    0  364          -   71.00000      -     -   32s
     0     0   71.00000    0   24          -   71.00000      -     -   56s
     0     0   71.00000    0   26          -   71.00000      -     -   57s
     0     0   71.00000    0   24          -   71.00000      -     -   78s
     0     0   71.00000    0   28          -   71.00000      -     -   91s
     0     0   71.00000    0   38          -   71.00000      -     -  120s
     0     0   71.00000    0  586          -   71.00000      -     -  138s
H    0     0                      71.0000000   71.00000  0.00%     -  155s
     0     0   71.00000    0    4   71.00000   71.00000  0.00%     -  155s

Cutting planes:
  Gomory: 3
  Cover: 7
  Implied bound: 50
  MIR: 628
  StrongCG: 5
  RLT: 472
  Relax-and-lift: 29

Explored 1 nodes (44001 simplex iterations) in 157.83 seconds (8.83 work units)
Thread count was 32 (of 32 available processors)

Solution count 1: 71 

Optimal solution found (tolerance 1.00e-04)
Best objective 7.100000000000e+01, best bound 7.100000000000e+01, gap 0.0000%

Wrote result file 'RCPSP_1017.sol'

